NAME : att48.tour
TYPE : TOUR
DIMENSION : 48
OBJECTIVE : 10628.000000
TIME : 20.000194
TOUR_SECTION
1
9
40
15
12
11
13
25
14
23
3
22
16
41
34
29
2
26
4
35
45
10
24
42
5
48
39
32
21
47
20
33
46
36
30
43
17
27
19
37
6
28
7
18
44
31
38
8
-1
EOF